400
500
350
349
349
347
346
344
343
343
341
340
340
340
338
337
337
336
336
335
334
333
332
332
331
330
329
329
328
328
327
327
326
325
325
325
324
324
324
323
323
323
322
321
320
320
319
319
318
318
317
315
315
314
313
312
312
312
311
311
311
310
310
309
309
309
308
308
308
307
306
306
306
306
305
305
304
304
303
303
303
303
303
303
299
299
298
298
297
297
297
297
296
296
296
295
295
295
294
294
294
293
291
291
288
287
285
285
284
283
282
279
279
279
279
279
278
276
275
275
274
273
273
272
272
271
270
270
269
269
269
269
269
268
267
266
265
262
261
261
261
261
261
259
259
259
259
258
258
257
256
256
256
255
255
255
255
254
254
253
252
252
250
250
250
249
249
247
246
246
245
245
245
245
245
245
242
242
242
241
241
241
241
240
240
239
238
238
236
235
235
233
233
233
233
232
232
231
231
230
230
228
227
227
226
226
225
224
224
224
223
223
221
221
219
218
218
217
217
216
216
216
215
215
215
215
214
213
211
210
210
207
207
206
205
204
204
203
203
203
201
200
200
200
198
198
197
196
196
196
196
195
195
194
194
194
194
194
194
193
192
192
190
190
190
189
189
188
188
187
187
186
184
184
184
183
182
181
181
179
179
179
178
178
178
177
176
176
173
171
171
171
170
170
169
169
168
166
166
166
163
163
162
162
162
161
160
160
159
159
159
158
158
158
157
157
157
156
156
155
153
153
152
152
151
151
150
149
148
148
146
146
146
145
145
144
142
142
141
141
141
141
141
141
140
140
139
139
139
138
137
137
135
135
133
131
131
130
130
130
130
129
127
127
125
125
125
125
124
123
123
123
123
123
123
121
121
120
119
119
118
118
116
115
114
114
112
111
109
108
108
107
104
102
102
102
102
101
101
101
101
100
